unsat
(:conflicts            1
 :max-generation       1
 :max-memory           22.48
 :memory               20.81
 :mk-bool-var          482
 :mk-clause            70
 :mk-clause-binary     401
 :num-allocs           2522959
 :num-checks           1
 :quant-instantiations 76
 :rlimit-count         29671
 :time                 0.01)
